self-compositions/words_1/words_278_SAT.qaiger
aag 32 16 0 1 16
12
20
16
10
18
28
2
30
14
26
22
32
24
8
6
4
65
34 32 6
36 33 7
38 37 35
40 30 5
42 31 4
44 29 2
46 45 43
48 46 41
50 28 3
52 51 19
54 23 20
56 27 25
58 56 54
60 58 52
62 60 48
64 62 39
i0 1 x[5]
i1 2 z[1]
i2 1 x[7]
i3 1 x[4]
i4 2 z[0]
i5 2 z[5]
i6 1 x[0]
i7 2 z[6]
i8 1 x[6]
i9 2 z[4]
i10 2 z[2]
i11 2 z[7]
i12 2 z[3]
i13 1 x[3]
i14 1 x[2]
i15 1 x[1]
o0 bool[0]
c
simplified
  !=
    unary minus
      1
    subtract
      or
        << 5
          1 x
        1
      2 z
