self-compositions/words_1/words_278_SAT.qaiger.qdimacs
p cnf 32 49
a 1 2 3 4 5 6 7 8 0
e 9 10 11 12 13 14 15 16 17 18 19 20 21 22 23 24 25 26 27 28 29 30 31 32 0
-16 -3 17 0
16 -17 0
3 -17 0
16 3 18 0
-16 -18 0
-3 -18 0
18 17 19 0
-18 -19 0
-17 -19 0
-15 2 20 0
15 -20 0
-2 -20 0
15 -2 21 0
-15 -21 0
2 -21 0
14 -1 22 0
-14 -22 0
1 -22 0
22 21 23 0
-22 -23 0
-21 -23 0
-23 20 24 0
23 -24 0
-20 -24 0
-14 1 25 0
14 -25 0
-1 -25 0
25 9 26 0
-25 -26 0
-9 -26 0
11 -10 27 0
-11 -27 0
10 -27 0
13 12 28 0
-13 -28 0
-12 -28 0
-28 -27 29 0
28 -29 0
27 -29 0
-29 -26 30 0
29 -30 0
26 -30 0
-30 -24 31 0
30 -31 0
24 -31 0
-31 19 32 0
31 -32 0
-19 -32 0
-32 0
